C H                                     
   1.00000000000000     
     5.4417565017860650    0.0000000000000000    0.0014949340286872
     0.0000000000000000    5.4479551216201960    0.0000000000000000
    -2.4900376543131459    0.0000000000000000    6.9795609930469080
   C    H 
    12    12
Direct
  0.7617233164329136  0.9790949917722855  0.1155919956888809
  0.2382766835670864  0.0209050082277145  0.8844080043111191
  0.2382766835670864  0.4790949917722855  0.3844080043111191
  0.7617233164329136  0.5209050082277145  0.6155919956888809
  0.5832349868665361  0.7966412012347348  0.1204968268603963
  0.4167650131334639  0.2033587987652652  0.8795031731396037
  0.4167650131334639  0.2966412012347348  0.3795031731396037
  0.5832349868665361  0.7033587987652652  0.6204968268603963
  0.6784981084677000  0.1824466004331740  0.9952127528406649
  0.3215018915323000  0.8175533995668260  0.0047872471593351
  0.3215018915323000  0.6824466004331740  0.5047872471593351
  0.6784981084677000  0.3175533995668260  0.4952127528406649
  0.9646032943047302  0.9622807983132589  0.2047127815951271
  0.0353967056952698  0.0377192016867411  0.7952872184048729
  0.0353967056952698  0.4622807983132589  0.2952872184048729
  0.9646032943047302  0.5377192016867411  0.7047127815951271
  0.6458897219805166  0.6398686652298551  0.2144793962837497
  0.3541102780194834  0.3601313347701449  0.7855206037162503
  0.3541102780194834  0.1398686652298551  0.2855206037162503
  0.6458897219805166  0.8601313347701449  0.7144793962837497
  0.8164623034367438  0.3236586042079992  0.9897313035208768
  0.1835376965632562  0.6763413957920008  0.0102686964791232
  0.1835376965632562  0.8236586042079992  0.5102686964791232
  0.8164623034367438  0.1763413957920008  0.4897313035208768
 
  0.00000000E+00  0.00000000E+00  0.00000000E+00
  0.00000000E+00  0.00000000E+00  0.00000000E+00
  0.00000000E+00  0.00000000E+00  0.00000000E+00
  0.00000000E+00  0.00000000E+00  0.00000000E+00
  0.00000000E+00  0.00000000E+00  0.00000000E+00
  0.00000000E+00  0.00000000E+00  0.00000000E+00
  0.00000000E+00  0.00000000E+00  0.00000000E+00
  0.00000000E+00  0.00000000E+00  0.00000000E+00
  0.00000000E+00  0.00000000E+00  0.00000000E+00
  0.00000000E+00  0.00000000E+00  0.00000000E+00
  0.00000000E+00  0.00000000E+00  0.00000000E+00
  0.00000000E+00  0.00000000E+00  0.00000000E+00
  0.00000000E+00  0.00000000E+00  0.00000000E+00
  0.00000000E+00  0.00000000E+00  0.00000000E+00
  0.00000000E+00  0.00000000E+00  0.00000000E+00
  0.00000000E+00  0.00000000E+00  0.00000000E+00
  0.00000000E+00  0.00000000E+00  0.00000000E+00
  0.00000000E+00  0.00000000E+00  0.00000000E+00
  0.00000000E+00  0.00000000E+00  0.00000000E+00
  0.00000000E+00  0.00000000E+00  0.00000000E+00
  0.00000000E+00  0.00000000E+00  0.00000000E+00
  0.00000000E+00  0.00000000E+00  0.00000000E+00
  0.00000000E+00  0.00000000E+00  0.00000000E+00
  0.00000000E+00  0.00000000E+00  0.00000000E+00
