Ag Co  C  H  N                          
    1.000000000000000     
    11.8426632984308071    0.0000000000000013    0.0000000000000000
    -0.0000000000000013   11.8426632984308071    0.0000000000000000
     0.0000000000000000    0.0000000000000000   27.1240000000000023
   Ag   Co   C    H    N 
    85     1    20     4     8
Selective dynamics
Direct
  0.0010332102592940  0.0084995112998598  0.0366777008469299   F   F   F
  0.0892685043769390  0.1555583348292728  0.1115560373754647   F   F   F
  0.0010332102592940  0.0084995112998598  0.1864343739039995   F   F   F
  0.0892038291146722  0.1555418784877315  0.2621919277230010   T   T   T
  0.0014288153490747  0.0101926521264519  0.3385445997878313   T   T   T
  0.2363273279063520  0.0673230407116279  0.0366777008469299   F   F   F
  0.3245626220239970  0.2143818642410338  0.1115560373754647   F   F   F
  0.2363273279063520  0.0673230407116279  0.1864343739039995   F   F   F
  0.3237965595924258  0.2143416020613255  0.2625967461990866   T   T   T
  0.2346083022842081  0.0676262466365619  0.3385090260753847   T   T   T
  0.1775037984945911  0.3026171583586859  0.0366777008469299   F   F   F
  0.2657390926122360  0.4496759818880918  0.1115560373754647   F   F   F
  0.1775037984945911  0.3026171583586859  0.1864343739039995   F   F   F
  0.2648354161074787  0.4488735411645207  0.2624263884271816   T   T   T
  0.1771368469069955  0.3008260896322403  0.3386607089564869   T   T   T
  0.1186802690828230  0.5379112760057438  0.0366777008469299   F   F   F
  0.2069155632004680  0.6849700995351569  0.1115560373754647   F   F   F
  0.1186802690828230  0.5379112760057438  0.1864343739039995   F   F   F
  0.2070070063102926  0.6852285173466742  0.2623897104619929   T   T   T
  0.1190007958061440  0.5371574898075491  0.3368802924962753   T   T   T
  0.0598567396710621  0.7732053936528018  0.0366777008469299   F   F   F
  0.1480920337887071  0.9202642171822148  0.1115560373754647   F   F   F
  0.0598567396710621  0.7732053936528018  0.1864343739039995   F   F   F
  0.1482475285911005  0.9209865185312274  0.2625976858456992   T   T   T
  0.0595230081614763  0.7740288537293850  0.3367647923909380   T   T   T
  0.4716214455534100  0.1261465701233888  0.0366777008469299   F   F   F
  0.5598567396710621  0.2732053936528018  0.1115560373754647   F   F   F
  0.4716214455534100  0.1261465701233888  0.1864343739039995   F   F   F
  0.5596304189911193  0.2732123475330550  0.2623461568390915   T   T   T
  0.4708344343129081  0.1256522502317435  0.3368219861247574   T   T   T
  0.4127979161416491  0.3614406877704468  0.0366777008469299   F   F   F
  0.5010332102592940  0.5084995112998598  0.1115560373754647   F   F   F
  0.4127979161416491  0.3614406877704468  0.1864343739039995   F   F   F
  0.5008866472456096  0.5086220600607538  0.2621190861825530   T   T   T
  0.4114490576082303  0.3621687216134408  0.3368112079900791   T   T   T
  0.3539743867298810  0.5967348054175048  0.0366777008469299   F   F   F
  0.4422096808475260  0.7437936289469178  0.1115560373754647   F   F   F
  0.3539743867298810  0.5967348054175048  0.1864343739039995   F   F   F
  0.4423584254944999  0.7438549613091806  0.2621228622163591   T   T   T
  0.3540885076823102  0.5967786886204230  0.3370455415041820   T   T   T
  0.2951508573181201  0.8320289230645628  0.0366777008469299   F   F   F
  0.3833861514357650  0.9790877465939758  0.1115560373754647   F   F   F
  0.2951508573181201  0.8320289230645628  0.1864343739039995   F   F   F
  0.3826653442368592  0.9798696884884023  0.2623900340572008   T   T   T
  0.2961822329415639  0.8334346718770356  0.3369483925497239   T   T   T
  0.7069155632004680  0.1849700995351569  0.0366777008469299   F   F   F
  0.7951508573181201  0.3320289230645628  0.1115560373754647   F   F   F
  0.7069155632004680  0.1849700995351569  0.1864343739039995   F   F   F
  0.7960070343983414  0.3311019840491228  0.2624184896915648   T   T   T
  0.7076828869368982  0.1852794444922963  0.3368353304555166   T   T   T
  0.6480920337887071  0.4202642171822148  0.0366777008469299   F   F   F
  0.7363273279063591  0.5673230407116279  0.1115560373754647   F   F   F
  0.6480920337887071  0.4202642171822148  0.1864343739039995   F   F   F
  0.7361803919778069  0.5670848829215902  0.2620947381080742   T   T   T
  0.6479114769327330  0.4203066330257318  0.3369979243476517   T   T   T
  0.5892685043769390  0.6555583348292728  0.0366777008469299   F   F   F
  0.6775037984945982  0.8026171583586859  0.1115560373754647   F   F   F
  0.5892685043769390  0.6555583348292728  0.1864343739039995   F   F   F
  0.6776474334013849  0.8024207664817815  0.2621149564210762   T   T   T
  0.5892460091894268  0.6554596888182059  0.3373883070749398   T   T   T
  0.5304449749651781  0.8908524524763308  0.0366777008469299   F   F   F
  0.6186802690828230  0.0379112760057438  0.1115560373754647   F   F   F
  0.5304449749651781  0.8908524524763308  0.1864343739039995   F   F   F
  0.6190592915461384  0.0378106123416216  0.2623987816575194   T   T   T
  0.5307472559202030  0.8906621169922272  0.3369742794702285   T   T   T
  0.9422096808475260  0.2437936289469178  0.0366777008469299   F   F   F
  0.0304449749651781  0.3908524524763308  0.1115560373754647   F   F   F
  0.9422096808475260  0.2437936289469178  0.1864343739039995   F   F   F
  0.0304197688349645  0.3899833063348093  0.2626426792356794   T   T   T
  0.9440483069409524  0.2432685057406499  0.3387260318891912   T   T   T
  0.8833861514357721  0.4790877465939758  0.0366777008469299   F   F   F
  0.9716214455534171  0.6261465701233888  0.1115560373754647   F   F   F
  0.8833861514357721  0.4790877465939758  0.1864343739039995   F   F   F
  0.9716810927401867  0.6257404811660944  0.2623391727486617   T   T   T
  0.8825223384116621  0.4774571781838892  0.3368704023460351   T   T   T
  0.8245626220239970  0.7143818642410338  0.0366777008469299   F   F   F
  0.9127979161416491  0.8614406877704468  0.1115560373754647   F   F   F
  0.8245626220239970  0.7143818642410338  0.1864343739039995   F   F   F
  0.9135812685879693  0.8621911794773857  0.2623961043291765   T   T   T
  0.8245319223171692  0.7139037268981628  0.3369084192828293   T   T   T
  0.7657390926122360  0.9496759818880918  0.0366777008469299   F   F   F
  0.8539743867298810  0.0967348054175048  0.1115560373754647   F   F   F
  0.7657390926122360  0.9496759818880918  0.1864343739039995   F   F   F
  0.8547407551392338  0.0966194046552763  0.2626481763844383   T   T   T
  0.7673034049863147  0.9485404261333248  0.3369937202747076   T   T   T
  0.0874151297384779  0.1574569541499171  0.4391408311861867   T   T   T
  0.5281670036945015  0.0540229180089236  0.4486215383926977   T   T   T
  0.6467019602967807  0.2610211144992561  0.4488068108981649   T   T   T
  0.4647667513251727  0.1554338257548312  0.4474810029192051   T   T   T
  0.5289619379778222  0.2607683830046015  0.4492200452238444   T   T   T
  0.7101415111831436  0.1596253148851909  0.4474415255811076   T   T   T
  0.6459354782809736  0.0542793716512426  0.4490367779775296   T   T   T
  0.3458734013419539  0.1540640469968523  0.4457331317898773   T   T   T
  0.4708489215492050  0.3645639908800369  0.4464516009969036   T   T   T
  0.8290272390547645  0.1609675214014004  0.4456927967763594   T   T   T
  0.7040891306137217  0.9506229882900208  0.4459518959715821   T   T   T
  0.1908606266758015  0.5981158199975142  0.4487278577260083   T   T   T
  0.9838708695719833  0.7166439253498029  0.4487083151586452   T   T   T
  0.0894671999851797  0.5347040980279837  0.4475198422612642   T   T   T
  0.9841327747095159  0.5989028246375111  0.4491748409390067   T   T   T
  0.0852730593602789  0.7800763686059063  0.4474083484877732   T   T   T
  0.1906199600332181  0.7158679876832285  0.4490815013997956   T   T   T
  0.0908385576751387  0.4158066619714862  0.4457952489681165   T   T   T
  0.8804083455013981  0.5407162917730970  0.4463537035141795   T   T   T
  0.0839319022124394  0.8989578302146530  0.4456325797860299   T   T   T
  0.2943383055508832  0.7739524629249777  0.4460218521226164   T   T   T
  0.6910862831424728  0.3418410193303036  0.4488370513958838   T   T   T
  0.4837809537824165  0.9732016680712036  0.4485150083595668   T   T   T
  0.9030448167445502  0.7610313199870330  0.4486606951455767   T   T   T
  0.2716892494393428  0.5537346381974212  0.4487029663250957   T   T   T
  0.2462068908837846  0.1543545346892085  0.4432723322150335   T   T   T
  0.4195692766501198  0.4487960007747486  0.4418932592746098   T   T   T
  0.9287034198522249  0.1605994947123077  0.4432965031804176   T   T   T
  0.7556150978889846  0.8666501165208993  0.4409338066783616   T   T   T
  0.0905471435963962  0.3161419270959346  0.4434016741535740   T   T   T
  0.7962981357632590  0.4892769029999552  0.4417068303863406   T   T   T
  0.0842840813093221  0.9986320040099098  0.4431603858364386   T   T   T
  0.3784501834934962  0.8252709935514989  0.4410442245995324   T   T   T
 
  0.00000000E+00  0.00000000E+00  0.00000000E+00
  0.00000000E+00  0.00000000E+00  0.00000000E+00
  0.00000000E+00  0.00000000E+00  0.00000000E+00
  0.00000000E+00  0.00000000E+00  0.00000000E+00
  0.00000000E+00  0.00000000E+00  0.00000000E+00
  0.00000000E+00  0.00000000E+00  0.00000000E+00
  0.00000000E+00  0.00000000E+00  0.00000000E+00
  0.00000000E+00  0.00000000E+00  0.00000000E+00
  0.00000000E+00  0.00000000E+00  0.00000000E+00
  0.00000000E+00  0.00000000E+00  0.00000000E+00
  0.00000000E+00  0.00000000E+00  0.00000000E+00
  0.00000000E+00  0.00000000E+00  0.00000000E+00
  0.00000000E+00  0.00000000E+00  0.00000000E+00
  0.00000000E+00  0.00000000E+00  0.00000000E+00
  0.00000000E+00  0.00000000E+00  0.00000000E+00
  0.00000000E+00  0.00000000E+00  0.00000000E+00
  0.00000000E+00  0.00000000E+00  0.00000000E+00
  0.00000000E+00  0.00000000E+00  0.00000000E+00
  0.00000000E+00  0.00000000E+00  0.00000000E+00
  0.00000000E+00  0.00000000E+00  0.00000000E+00
  0.00000000E+00  0.00000000E+00  0.00000000E+00
  0.00000000E+00  0.00000000E+00  0.00000000E+00
  0.00000000E+00  0.00000000E+00  0.00000000E+00
  0.00000000E+00  0.00000000E+00  0.00000000E+00
  0.00000000E+00  0.00000000E+00  0.00000000E+00
  0.00000000E+00  0.00000000E+00  0.00000000E+00
  0.00000000E+00  0.00000000E+00  0.00000000E+00
  0.00000000E+00  0.00000000E+00  0.00000000E+00
  0.00000000E+00  0.00000000E+00  0.00000000E+00
  0.00000000E+00  0.00000000E+00  0.00000000E+00
  0.00000000E+00  0.00000000E+00  0.00000000E+00
  0.00000000E+00  0.00000000E+00  0.00000000E+00
  0.00000000E+00  0.00000000E+00  0.00000000E+00
  0.00000000E+00  0.00000000E+00  0.00000000E+00
  0.00000000E+00  0.00000000E+00  0.00000000E+00
  0.00000000E+00  0.00000000E+00  0.00000000E+00
  0.00000000E+00  0.00000000E+00  0.00000000E+00
  0.00000000E+00  0.00000000E+00  0.00000000E+00
  0.00000000E+00  0.00000000E+00  0.00000000E+00
  0.00000000E+00  0.00000000E+00  0.00000000E+00
  0.00000000E+00  0.00000000E+00  0.00000000E+00
  0.00000000E+00  0.00000000E+00  0.00000000E+00
  0.00000000E+00  0.00000000E+00  0.00000000E+00
  0.00000000E+00  0.00000000E+00  0.00000000E+00
  0.00000000E+00  0.00000000E+00  0.00000000E+00
  0.00000000E+00  0.00000000E+00  0.00000000E+00
  0.00000000E+00  0.00000000E+00  0.00000000E+00
  0.00000000E+00  0.00000000E+00  0.00000000E+00
  0.00000000E+00  0.00000000E+00  0.00000000E+00
  0.00000000E+00  0.00000000E+00  0.00000000E+00
  0.00000000E+00  0.00000000E+00  0.00000000E+00
  0.00000000E+00  0.00000000E+00  0.00000000E+00
  0.00000000E+00  0.00000000E+00  0.00000000E+00
  0.00000000E+00  0.00000000E+00  0.00000000E+00
  0.00000000E+00  0.00000000E+00  0.00000000E+00
  0.00000000E+00  0.00000000E+00  0.00000000E+00
  0.00000000E+00  0.00000000E+00  0.00000000E+00
  0.00000000E+00  0.00000000E+00  0.00000000E+00
  0.00000000E+00  0.00000000E+00  0.00000000E+00
  0.00000000E+00  0.00000000E+00  0.00000000E+00
  0.00000000E+00  0.00000000E+00  0.00000000E+00
  0.00000000E+00  0.00000000E+00  0.00000000E+00
  0.00000000E+00  0.00000000E+00  0.00000000E+00
  0.00000000E+00  0.00000000E+00  0.00000000E+00
  0.00000000E+00  0.00000000E+00  0.00000000E+00
  0.00000000E+00  0.00000000E+00  0.00000000E+00
  0.00000000E+00  0.00000000E+00  0.00000000E+00
  0.00000000E+00  0.00000000E+00  0.00000000E+00
  0.00000000E+00  0.00000000E+00  0.00000000E+00
  0.00000000E+00  0.00000000E+00  0.00000000E+00
  0.00000000E+00  0.00000000E+00  0.00000000E+00
  0.00000000E+00  0.00000000E+00  0.00000000E+00
  0.00000000E+00  0.00000000E+00  0.00000000E+00
  0.00000000E+00  0.00000000E+00  0.00000000E+00
  0.00000000E+00  0.00000000E+00  0.00000000E+00
  0.00000000E+00  0.00000000E+00  0.00000000E+00
  0.00000000E+00  0.00000000E+00  0.00000000E+00
  0.00000000E+00  0.00000000E+00  0.00000000E+00
  0.00000000E+00  0.00000000E+00  0.00000000E+00
  0.00000000E+00  0.00000000E+00  0.00000000E+00
  0.00000000E+00  0.00000000E+00  0.00000000E+00
  0.00000000E+00  0.00000000E+00  0.00000000E+00
  0.00000000E+00  0.00000000E+00  0.00000000E+00
  0.00000000E+00  0.00000000E+00  0.00000000E+00
  0.00000000E+00  0.00000000E+00  0.00000000E+00
  0.00000000E+00  0.00000000E+00  0.00000000E+00
  0.00000000E+00  0.00000000E+00  0.00000000E+00
  0.00000000E+00  0.00000000E+00  0.00000000E+00
  0.00000000E+00  0.00000000E+00  0.00000000E+00
  0.00000000E+00  0.00000000E+00  0.00000000E+00
  0.00000000E+00  0.00000000E+00  0.00000000E+00
  0.00000000E+00  0.00000000E+00  0.00000000E+00
  0.00000000E+00  0.00000000E+00  0.00000000E+00
  0.00000000E+00  0.00000000E+00  0.00000000E+00
  0.00000000E+00  0.00000000E+00  0.00000000E+00
  0.00000000E+00  0.00000000E+00  0.00000000E+00
  0.00000000E+00  0.00000000E+00  0.00000000E+00
  0.00000000E+00  0.00000000E+00  0.00000000E+00
  0.00000000E+00  0.00000000E+00  0.00000000E+00
  0.00000000E+00  0.00000000E+00  0.00000000E+00
  0.00000000E+00  0.00000000E+00  0.00000000E+00
  0.00000000E+00  0.00000000E+00  0.00000000E+00
  0.00000000E+00  0.00000000E+00  0.00000000E+00
  0.00000000E+00  0.00000000E+00  0.00000000E+00
  0.00000000E+00  0.00000000E+00  0.00000000E+00
  0.00000000E+00  0.00000000E+00  0.00000000E+00
  0.00000000E+00  0.00000000E+00  0.00000000E+00
  0.00000000E+00  0.00000000E+00  0.00000000E+00
  0.00000000E+00  0.00000000E+00  0.00000000E+00
  0.00000000E+00  0.00000000E+00  0.00000000E+00
  0.00000000E+00  0.00000000E+00  0.00000000E+00
  0.00000000E+00  0.00000000E+00  0.00000000E+00
  0.00000000E+00  0.00000000E+00  0.00000000E+00
  0.00000000E+00  0.00000000E+00  0.00000000E+00
  0.00000000E+00  0.00000000E+00  0.00000000E+00
  0.00000000E+00  0.00000000E+00  0.00000000E+00
  0.00000000E+00  0.00000000E+00  0.00000000E+00
  0.00000000E+00  0.00000000E+00  0.00000000E+00
